c ---- [ banner ] ------------------------------------------------------------
c
c KISSAT SAT Solver
c Copyright (c) 2019-2021 Armin Biere JKU Linz
c 
c Version 2.0.1 02cd69626a53e93e09286b1978ccb5d6bec58b8e
c Apple clang version 13.1.6 (clang-1316.0.21.2) -W -Wall -O3 -DNDEBUG
c Thu Mar 31 15:34:51 EDT 2022 Darwin Randals-Macbook-Pro.local 21.2.0 arm64
c
c ---- [ proving ] -----------------------------------------------------------
c
c opened and writing proof to DRAT file:
c
c   chew-32-123457.drat
c
c ---- [ parsing ] -----------------------------------------------------------
c
c opened and reading DIMACS file:
c
c   chew-32-123457.cnf
c
c parsed 'p cnf 90 240' header
c closing input after reading 2941 bytes (3 KB)
c finished parsing after 0.00 seconds
c
c ---- [ options ] -----------------------------------------------------------
c
c --stable=0                       (different from default '1')
c
c ---- [ solving ] -----------------------------------------------------------
c
c  seconds switched rate      trail  variables
c         MB reductions conflicts glue   remaining
c          level restarts redundant irredundant
c
c *  0.00  0 0 0 0  0 0   0   0 0% 0 240 90 99%
c {  0.00  0 0 0 0  0 0   0   0 0% 0 240 90 99%
c -  0.00  0 24 0 1 43 6 302  65 74% 10 240 90 99%
c -  0.01  0 23 0 2 43 2 1302 253 74% 9 240 90 99%
c u  0.01  0 23 0 2 43 2 1302 246 74% 9 240 90 99%
c -  0.01  0 22 0 3 464 5 2717 361 61% 10 240 90 99%
c u  0.01  0 22 0 3 465 5 2717 325 61% 10 240 90 99%
c e  0.02  0 22 0 3 513 6 2877 403 61% 10 224 60 66%
c e  0.02  0 22 0 3 513 6 2877 403 61% 10 224 58 64%
c -  0.02  0 22 0 4 514 4 4449 436 65% 9 224 58 64%
c ^  0.03  0 21 0 4 514 3 5686 975 66% 9 224 58 64%
c -  0.03  0 21 0 5 514 3 6450 956 66% 9 224 58 64%
c u  0.04  0 21 0 5 514 3 7079 1220 67% 8 224 58 64%
c -  0.04  0 20 0 6 514 3 8687 1360 68% 8 224 58 64%
c u  0.05  0 20 0 6 905 3 10302 2113 65% 8 224 58 64%
c v  0.05  0 20 0 6 905 3 10302 2112 65% 8 224 58 64%
c -  0.06  0 20 0 7 1087 3 11139 1206 63% 8 224 58 64%
c ^  0.06  0 19 0 7 1087 3 11771 1481 63% 8 224 58 64%
c -  0.07  0 18 0 8 1087 3 13784 1473 59% 8 224 58 64%
c u  0.07  0 18 0 8 1087 3 14259 1552 58% 8 224 58 64%
c
c  seconds  switched   rate          trail  variables
c         MB reductions  conflicts      glue    remaining
c          level  restarts    redundant irredundant
c
c -  0.09  0 16 0 9 1087 3 16613 2086 56% 8 224 58 64%
c i  0.10  0 15 0 9 1087 2 18553 2774 56% 7 224 57 63%
c u  0.11  0 15 0 9 1087 2 18988 523 56% 7 216 57 63%
c v  0.11  0 15 0 9 1087 2 18988 516 56% 7 216 57 63%
c -  0.11  0 15 0 10 1263 3 19613 515 56% 7 216 57 63%
c ^  0.12  0 15 0 10 1803 3 21573 1390 55% 7 216 57 63%
c -  0.13  0 16 0 11 2124 3 22776 911 54% 7 216 57 63%
c u  0.13  0 16 0 11 2570 3 24444 1642 53% 8 216 57 63%
c v  0.13  0 16 0 11 2570 3 24444 1640 53% 8 216 57 63%
c -  0.14  0 16 0 12 3025 4 26095 1096 52% 8 216 57 63%
c -  0.16  0 15 0 13 3991 4 29562 1222 50% 8 216 57 63%
c u  0.17  0 15 0 13 4304 4 30702 1712 50% 8 216 57 63%
c -  0.18  0 15 0 14 4966 4 33167 1370 49% 8 216 57 63%
c e  0.19  0 15 0 14 5550 4 35322 2321 48% 8 240 51 56%
c ^  0.19  0 15 0 14 5550 4 35322 2321 48% 8 240 51 56%
c -  0.20  0 15 0 15 5571 4 36910 1380 49% 8 240 51 56%
c u  0.20  0 15 0 15 5571 4 37788 1616 49% 8 240 51 56%
c v  0.21  0 15 0 15 5571 4 37788 1613 49% 8 240 51 56%
c -  0.22  0 15 0 16 5571 4 40782 2125 48% 8 240 51 56%
c i  0.23  0 14 0 16 5571 3 42042 2382 47% 8 240 50 55%
c
c  seconds  switched    rate          trail  variables
c         MB  reductions  conflicts      glue    remaining
c          level   restarts    redundant irredundant
c
c -  0.24  0 14 0 17 5571 3 44782 1538 46% 7 240 50 55%
c i  0.24  0 14 0 17 5571 3 45238 1557 46% 7 240 49 54%
c f  0.25  0 14 0 17 5571 3 46017 1199 46% 7 224 49 54%
c u  0.25  0 14 0 17 5571 3 46052 1069 46% 7 224 49 54%
c v  0.25  0 14 0 17 5571 3 46054 1005 46% 7 224 49 54%
c i  0.25  0 14 0 17 5571 3 46138 1015 46% 7 224 48 53%
c i  0.25  0 13 0 17 5571 3 46399 1039 45% 7 224 47 52%
c i  0.25  0 13 0 17 5571 3 46533 1055 45% 7 224 46 51%
c i  0.25  0 13 0 17 5571 3 46608 1061 45% 7 224 45 49%
c i  0.25  0 13 0 17 5571 3 46644 1065 45% 7 224 44 48%
c i  0.25  0 13 0 17 5571 3 46671 1065 45% 7 224 43 47%
c i  0.25  0 13 0 17 5571 3 46683 1067 45% 7 224 42 46%
c i  0.25  0 13 0 17 5571 3 46688 1068 45% 7 224 41 45%
c i  0.25  0 13 0 17 5571 3 46690 1069 45% 7 224 39 43%
c }  0.25  0 13 0 17 5571 3 46692 1069 45% 7 224 37 41%
c 0  0.25  0 13 0 17 5571 3 46692 1069 45% 7 224 37 41%
c
c ---- [ result ] ------------------------------------------------------------
c
s UNSATISFIABLE
c
c ---- [ profiling ] ---------------------------------------------------------
c
c           0.23   90.75 %  search
c           0.23   90.75 %  focused
c           0.03    9.95 %  reduce
c           0.02    9.15 %  simplify
c           0.02    7.26 %  probe
c           0.01    3.32 %  vivify
c           0.01    2.93 %  substitute
c           0.00    1.89 %  eliminate
c           0.00    0.75 %  sweep
c           0.00    0.09 %  transitive
c           0.00    0.06 %  ternary
c           0.00    0.05 %  subsume
c           0.00    0.04 %  parse
c           0.00    0.04 %  failed
c           0.00    0.04 %  backbone
c =============================================
c           0.25  100.00 %  total
c
c ---- [ statistics ] --------------------------------------------------------
c
c clauses_learned:                      27741               59 %  conflicts
c conflicts:                            46692           184817.80 per second
c decisions:                           102795                2.20 per conflict
c forward_strengthened:                    16               15 %  strengthened
c kitten_conflicts:                       100                0.10 per solved
c kitten_decisions:                     12974               13.39 per solved
c kitten_propagations:                  20223               20.87 per solved
c kitten_sat:                             954               98 %  solved
c kitten_solved:                          969 
c kitten_ticks:                         66964                3.31 per propagation
c kitten_unknown:                          15                2 %  solved
c literals_bumped:                     731617               26.37 per clause
c literals_deduced:                    326407               11.77 per clause
c literals_learned:                    276677                9.97 per clause
c literals_minimized:                       0                0 %  deduced
c literals_minimize_shrunken:            2234                4 %  shrunken
c literals_shrunken:                    49743               15 %  deduced
c propagations:                        289366          1145378    per second
c reductions:                              17             2747    interval
c restarts:                              5571                8.38 interval
c restarts_reused_trails:                3458               62 %  restarts
c strengthened:                           105                1 %  checks
c subsumption_checks:                   17806 
c subsumed:                              9347               52 %  checks
c sweep:                                   12             3891    interval
c sweep_completed:                          2                6    sweeps
c sweep_equivalences:                       0                0    variables
c sweep_sat:                              954               98 %  sweep_solved
c sweep_solved:                           969              100 %  kitten_solved
c sweep_units:                              0                0 %  variables
c sweep_unsat:                              0                0 %  sweep_solved
c sweep_variables:                         92              101 %  variables
c
c ---- [ proof ] -------------------------------------------------------------
c
c proof_added:                          42577               51 %  per line
c proof_bytes:                        3186553                3 MB 
c proof_deleted:                        41508               49 %  per line
c
c ---- [ resources ] ---------------------------------------------------------
c
c maximum-resident-set-size:       3942645760 bytes       3760 MB
c process-time:                             50               0.25 seconds
c
c ---- [ shutting down ] -----------------------------------------------------
c
c exit 20
-rw-r--r--  1 bryant  staff  3186553 Mar 11 02:57 chew-32-123457.drat
c parsing input formula with 90 variables and 240 clauses
c finished parsing
c detected empty clause; start verification via backward checking
c 240 of 240 clauses in core                            
c 23251 of 42578 lemmas in core using 172520 resolution steps
c 0 RAT lemmas in core; 32 redundant literals in core lemmas
s VERIFIED
c verification time: 0.162 seconds
